CMPL model generation - running

CMPL version: 1.11.0
Authors: Thomas Schleiff, Mike Steglich
Distributed under the GPLv3 

create model instance ...
write model instance ...
CMPL model generation - finished

Solver - running


Welcome to IBM(R) ILOG(R) CPLEX(R) Interactive Optimizer 12.7.1.0
  with Simplex, Mixed Integer & Barrier Optimizers
5725-A06 5725-A29 5724-Y48 5724-Y49 5724-Y54 5724-Y55 5655-Y21
Copyright IBM Corp. 1988, 2017.  All Rights Reserved.

Type 'help' for a list of available commands.
Type 'help' followed by a command name for more
information on commands.

CPLEX> Specified objective sense: MINIMIZE
Selected objective  name:  line[1]
Selected RHS        name:  RHS
Selected bound      name:  BOUND
Problem '/tmp/cmpl.T24783.mps' read.
Read time = 0.11 sec. (8.20 ticks)
CPLEX> CPXPARAM_Read_APIEncoding                        "UTF-8"
Tried aggregator 3 times.
MIP Presolve eliminated 18922 rows and 30082 columns.
MIP Presolve modified 340 coefficients.
Aggregator did 886 substitutions.
Reduced MIP has 2547 rows, 3625 columns, and 10571 nonzeros.
Reduced MIP has 3457 binaries, 0 generals, 0 SOSs, and 0 indicators.
Presolve time = 0.08 sec. (41.19 ticks)
Found incumbent of value 2581.664625 after 0.16 sec. (74.53 ticks)
Probing fixed 32 vars, tightened 0 bounds.
Probing time = 0.02 sec. (4.89 ticks)
Tried aggregator 1 time.
MIP Presolve eliminated 0 rows and 32 columns.
MIP Presolve modified 238 coefficients.
Reduced MIP has 2547 rows, 3593 columns, and 10507 nonzeros.
Reduced MIP has 3593 binaries, 0 generals, 0 SOSs, and 0 indicators.
Presolve time = 0.02 sec. (10.17 ticks)
Probing time = 0.01 sec. (2.71 ticks)
Clique table members: 6490.
MIP emphasis: balance optimality and feasibility.
MIP search method: dynamic search.
Parallel mode: none, using 1 thread.
Root relaxation solution time = 0.01 sec. (9.63 ticks)

        Nodes                                         Cuts/
   Node  Left     Objective  IInf  Best Integer    Best Bound    ItCnt     Gap

*     0+    0                         2581.6646       -2.0262           100.08%
*     0     0      integral     0      725.6473      725.6473      541    0.00%
Elapsed time = 0.23 sec. (110.17 ticks, tree = 0.00 MB, solutions = 2)

Root node processing (before b&c):
  Real time             =    0.24 sec. (111.47 ticks)
Sequential b&c:
  Real time             =    0.00 sec. (0.00 ticks)
                          ------------
Total (root+branch&cut) =    0.24 sec. (111.47 ticks)

Solution pool: 2 solutions saved.

MIP - Integer optimal solution:  Objective =  7.2564726800e+02
Solution time =    0.24 sec.  Iterations = 541  Nodes = 0
Deterministic time = 111.56 ticks  (469.98 ticks/sec)

CPLEX> Incumbent solution written to file '/tmp/cmpl.T24783.gsol'.
CPLEX> 
CMPL: Time used for model generation: 1 seconds
CMPL: Time used for solving the model: 1 seconds


Solution written to ASCII file: results/output_generated_conf_0.9/2016-04-04-4/fair-nonlinear.sol

Solver - finished
